0 12 32
1 33 36
2 29 35
3 32 37
4 35 37
5 38 38
6 37 38
7 36 37
8 11 35
9 27 33
10 22 32
11 30 32
12 30 30
13 30 30
14 23 29
15 27 29
16 9 29
17 27 28
18 3 27
19 17 27
20 27 27
21 26 26
22 22 26
23 12 26
24 15 27
25 28 28
26 27 27
27 27 27
28 21 26
29 21 24
30 23 23
31 17 22
32 17 21
33 19 19
34 8 18
35 13 15
36 13 16
37 12 15
38 15 15
39 12 14
40 12 12
41 11 14
42 9 14
43 13 14
44 9 13
45 11 12
46 11 11
47 9 10
48 8 8
49 8 8
50 9 9
51 6 9
52 8 8
53 5 7
54 6 7
55 6 6
56 1 5
57 1 5
58 4 4
59 1 3
60 1 1

